Welcome to the CBC MILP Solver 
Version: Trunk
Build Date: Apr 16 2020 

Starting solution of the Linear programming relaxation problem using Primal Simplex

Using Python-MIP package version 1.8.1
Machines:  3 Jobs:  3
Order: 
Job  0 : machine 1 ( 7 ) machine 2 ( 7 ) machine 0 ( 1 ) 
Job  1 : machine 1 ( 4 ) machine 0 ( 3 ) machine 2 ( 7 ) 
Job  2 : machine 1 ( 7 ) machine 2 ( 6 ) machine 0 ( 2 ) 
K:  33
Job  0 , e: machine  0 ( 14 ) machine  1 ( 0 ) machine  2 ( 7 ) 
Job  1 , e: machine  0 ( 4 ) machine  1 ( 0 ) machine  2 ( 7 ) 
Job  2 , e: machine  0 ( 13 ) machine  1 ( 0 ) machine  2 ( 7 ) 
Job  0 , f: machine  0 ( 0 ) machine  1 ( 8 ) machine  2 ( 1 ) 
Job  1 , f: machine  0 ( 7 ) machine  1 ( 10 ) machine  2 ( 0 ) 
Job  2 , f: machine  0 ( 0 ) machine  1 ( 8 ) machine  2 ( 2 ) 
EST and LST:
Job: 0 Machine: 0 EST: 14 LST: 32
Job: 0 Machine: 1 EST: 0 LST: 18
Job: 0 Machine: 2 EST: 7 LST: 25
Job: 1 Machine: 0 EST: 4 LST: 23
Job: 1 Machine: 1 EST: 0 LST: 19
Job: 1 Machine: 2 EST: 7 LST: 26
Job: 2 Machine: 0 EST: 13 LST: 31
Job: 2 Machine: 1 EST: 0 LST: 18
Job: 2 Machine: 2 EST: 7 LST: 25
Order:
Job: 0 Machine: 0 = 2 
Job: 0 Machine: 1 = 0 
Job: 0 Machine: 2 = 1 
Job: 1 Machine: 0 = 1 
Job: 1 Machine: 1 = 0 
Job: 1 Machine: 2 = 2 
Job: 2 Machine: 0 = 2 
Job: 2 Machine: 1 = 0 
Job: 2 Machine: 2 = 1 
Distances:
Job 0, Machine 1 -> Machine 2: distance 7
Job 0, Machine 1 -> Machine 0: distance 14
Job 0, Machine 2 -> Machine 0: distance 7
Job 1, Machine 1 -> Machine 0: distance 4
Job 1, Machine 1 -> Machine 2: distance 7
Job 1, Machine 0 -> Machine 2: distance 3
Job 2, Machine 1 -> Machine 2: distance 7
Job 2, Machine 1 -> Machine 0: distance 13
Job 2, Machine 2 -> Machine 0: distance 6
McCormic linearization
[(0, 1), (1, 2), (0, 2), (2, 1), (2, 0), (2, 2), (1, 0), (1, 1)]
obj:  0.0
solutions:  1
+ 0.14285714285714285x(0,1) + 0.14285714285714285x(2,1) 
C:  18.5
x(0,0) = 17.50	 x(0,1) = 3.50	 x(0,2) = 10.50	 
x(1,0) = 8.50	 x(1,1) = 4.50	 x(1,2) = 11.50	 
x(2,0) = 16.50	 x(2,1) = 3.50	 x(2,2) = 10.50	 
y(0,1,0) = 0.00	 y(1,0,0) = 1.00	 
y(0,2,0) = 0.90	 y(2,0,0) = 0.10	 
y(1,2,0) = 0.59	 y(2,1,0) = 0.41	 
y(0,1,1) = 0.22	 y(1,0,1) = 0.78	 
y(0,2,1) = 0.50	 y(2,0,1) = 0.50	 
y(1,2,1) = 0.36	 y(2,1,1) = 0.64	 
y(0,1,2) = 0.50	 y(1,0,2) = 0.50	 
y(0,2,2) = 0.42	 y(2,0,2) = 0.58	 
y(1,2,2) = 0.49	 y(2,1,2) = 0.51	 
obj:  0.6380952380952379
solutions:  1
+ 0.06666666666666665x(0,1) + 0.06666666666666667x(2,1) + 0.03809523809523811x(1,1) 
[(1, 2), (0, 1), (2, 1), (2, 0), (1, 1), (2, 2), (1, 0), (0, 2)]
cliques:  1 mip: 32
C:  21.546296296296294
x(0,0) = 20.55	 x(0,1) = 6.55	 x(0,2) = 13.55	 
x(1,0) = 10.05	 x(1,1) = 6.05	 x(1,2) = 13.05	 
x(2,0) = 18.55	 x(2,1) = 5.00	 x(2,2) = 12.00	 
y(0,1,0) = 0.00	 y(1,0,0) = 1.00	 
y(0,2,0) = 0.00	 y(2,0,0) = 1.00	 
y(1,2,0) = 0.53	 y(2,1,0) = 0.47	 
y(0,1,1) = 0.70	 y(1,0,1) = 0.30	 
y(0,2,1) = 0.22	 y(2,0,1) = 0.78	 
y(1,2,1) = 0.24	 y(2,1,1) = 0.76	 
y(0,1,2) = 0.25	 y(1,0,2) = 0.75	 
y(0,2,2) = 0.19	 y(2,0,2) = 0.81	 
y(1,2,2) = 0.69	 y(2,1,2) = 0.31	 
obj:  0.9455685408066357
solutions:  1
+ 0.025641025641025637x(1,2) + 0.025641025641025637x(0,2) + 0.021978021978021976x(2,2) 
[(1, 2), (0, 1), (0, 2), (2, 1), (2, 0), (2, 2), (1, 0), (1, 1)]
cliques:  1 mip: 65
C:  22.83678440925684
x(0,0) = 21.84	 x(0,1) = 7.84	 x(0,2) = 14.84	 
x(1,0) = 12.84	 x(1,1) = 3.84	 x(1,2) = 15.84	 
x(2,0) = 19.84	 x(2,1) = 4.97	 x(2,2) = 11.97	 
y(0,1,0) = 0.00	 y(1,0,0) = 1.00	 
y(0,2,0) = 0.00	 y(2,0,0) = 1.00	 
y(1,2,0) = 0.63	 y(2,1,0) = 0.37	 
y(0,1,1) = 0.00	 y(1,0,1) = 1.00	 
y(0,2,1) = 0.61	 y(2,0,1) = 0.39	 
y(1,2,1) = 0.64	 y(2,1,1) = 0.36	 
y(0,1,2) = 0.46	 y(1,0,2) = 0.54	 
y(0,2,2) = 0.52	 y(2,0,2) = 0.48	 
y(1,2,2) = 0.54	 y(2,1,2) = 0.46	 
obj:  1.0
erro
[(1, 2), (0, 1), (2, 1), (2, 0), (1, 1), (2, 2), (1, 0), (0, 2)]
cliques:  0 mip: 54
C:  24.191998856015385
x(0,0) = 23.19	 x(0,1) = 8.71	 x(0,2) = 15.71	 
x(1,0) = 14.19	 x(1,1) = 4.93	 x(1,2) = 17.19	 
x(2,0) = 17.40	 x(2,1) = 3.47	 x(2,2) = 11.40	 
y(0,1,0) = 0.00	 y(1,0,0) = 1.00	 
y(0,2,0) = 0.00	 y(2,0,0) = 1.00	 
y(1,2,0) = 0.37	 y(2,1,0) = 0.63	 
y(0,1,1) = 0.08	 y(1,0,1) = 0.92	 
y(0,2,1) = 0.07	 y(2,0,1) = 0.93	 
y(1,2,1) = 0.22	 y(2,1,1) = 0.78	 
y(0,1,2) = 0.78	 y(1,0,2) = 0.22	 
y(0,2,2) = 0.07	 y(2,0,2) = 0.93	 
y(1,2,2) = 0.22	 y(2,1,2) = 0.78	 
obj:  1.0000000000000002
erro
[(1, 2), (0, 1), (0, 2), (2, 1), (2, 0), (2, 2), (1, 0), (1, 1)]
cliques:  0 mip: 85
C:  25.0
x(0,0) = 24.00	 x(0,1) = 4.46	 x(0,2) = 13.67	 
x(1,0) = 15.00	 x(1,1) = 10.19	 x(1,2) = 18.00	 
x(2,0) = 17.72	 x(2,1) = 4.72	 x(2,2) = 11.72	 
y(0,1,0) = 0.00	 y(1,0,0) = 1.00	 
y(0,2,0) = 0.00	 y(2,0,0) = 1.00	 
y(1,2,0) = 0.16	 y(2,1,0) = 0.84	 
y(0,1,1) = 0.92	 y(1,0,1) = 0.08	 
y(0,2,1) = 0.43	 y(2,0,1) = 0.57	 
y(1,2,1) = 0.17	 y(2,1,1) = 0.83	 
y(0,1,2) = 0.89	 y(1,0,2) = 0.11	 
y(0,2,2) = 0.17	 y(2,0,2) = 0.83	 
y(1,2,2) = 0.11	 y(2,1,2) = 0.89	 
obj:  0.9999999999999999
erro
[(0, 1), (1, 2), (0, 2), (2, 1), (2, 0), (2, 2), (1, 0), (1, 1)]
cliques:  0 mip: 71
C:  25.000000000000004
x(0,0) = 24.00	 x(0,1) = 3.65	 x(0,2) = 11.34	 
x(1,0) = 15.00	 x(1,1) = 11.00	 x(1,2) = 18.00	 
x(2,0) = 22.00	 x(2,1) = 5.07	 x(2,2) = 12.07	 
y(0,1,0) = 0.00	 y(1,0,0) = 1.00	 
y(0,2,0) = 0.00	 y(2,0,0) = 1.00	 
y(1,2,0) = 0.83	 y(2,1,0) = 0.17	 
y(0,1,1) = 1.00	 y(1,0,1) = -0.00	 
y(0,2,1) = 0.67	 y(2,0,1) = 0.33	 
y(1,2,1) = 0.45	 y(2,1,1) = 0.55	 
y(0,1,2) = 0.99	 y(1,0,2) = 0.01	 
y(0,2,2) = 0.74	 y(2,0,2) = 0.26	 
y(1,2,2) = 0.01	 y(2,1,2) = 0.99	 
obj:  0.9999999999999996
erro
[(0, 1), (1, 2), (2, 1), (2, 0), (1, 1), (2, 2), (1, 0), (0, 2)]
cliques:  0 mip: 53
C:  25.000000000000004
x(0,0) = 24.00	 x(0,1) = 6.02	 x(0,2) = 17.00	 
x(1,0) = 15.00	 x(1,1) = 8.30	 x(1,2) = 18.00	 
x(2,0) = 18.19	 x(2,1) = 5.19	 x(2,2) = 12.19	 
y(0,1,0) = 0.00	 y(1,0,0) = 1.00	 
y(0,2,0) = 0.00	 y(2,0,0) = 1.00	 
y(1,2,0) = 1.00	 y(2,1,0) = 0.00	 
y(0,1,1) = 0.66	 y(1,0,1) = 0.34	 
y(0,2,1) = 0.44	 y(2,0,1) = 0.56	 
y(1,2,1) = 0.69	 y(2,1,1) = 0.31	 
y(0,1,2) = 0.66	 y(1,0,2) = 0.34	 
y(0,2,2) = 0.42	 y(2,0,2) = 0.58	 
y(1,2,2) = 0.34	 y(2,1,2) = 0.66	 
obj:  1.0639809335520478
erro
[(0, 1), (1, 2), (0, 2), (2, 1), (2, 2), (1, 1)]
cliques:  0 mip: 66
C:  25.0
x(0,0) = 24.00	 x(0,1) = 4.71	 x(0,2) = 16.47	 
x(1,0) = 15.00	 x(1,1) = 6.87	 x(1,2) = 18.00	 
x(2,0) = 20.82	 x(2,1) = 6.37	 x(2,2) = 14.82	 
y(0,1,0) = 0.00	 y(1,0,0) = 1.00	 
y(0,2,0) = 0.00	 y(2,0,0) = 1.00	 
y(1,2,0) = 1.00	 y(2,1,0) = 0.00	 
y(0,1,1) = 0.54	 y(1,0,1) = 0.46	 
y(0,2,1) = 0.57	 y(2,0,1) = 0.43	 
y(1,2,1) = 0.66	 y(2,1,1) = 0.34	 
y(0,1,2) = 0.66	 y(1,0,2) = 0.34	 
y(0,2,2) = 0.65	 y(2,0,2) = 0.35	 
y(1,2,2) = 0.61	 y(2,1,2) = 0.39	 
obj:  1.0000000000000002
erro
[(0, 1), (1, 2), (0, 2), (2, 1), (2, 2), (1, 1)]
cliques:  0 mip: 75
C:  24.999999999999996
x(0,0) = 24.00	 x(0,1) = 7.28	 x(0,2) = 17.00	 
x(1,0) = 12.65	 x(1,1) = 6.59	 x(1,2) = 15.65	 
x(2,0) = 18.47	 x(2,1) = 3.95	 x(2,2) = 12.47	 
y(0,1,0) = 0.00	 y(1,0,0) = 1.00	 
y(0,2,0) = 0.00	 y(2,0,0) = 1.00	 
y(1,2,0) = 0.88	 y(2,1,0) = 0.12	 
y(0,1,1) = 0.45	 y(1,0,1) = 0.55	 
y(0,2,1) = 0.27	 y(2,0,1) = 0.73	 
y(1,2,1) = 0.52	 y(2,1,1) = 0.48	 
y(0,1,2) = 0.67	 y(1,0,2) = 0.33	 
y(0,2,2) = 0.54	 y(2,0,2) = 0.46	 
y(1,2,2) = 0.55	 y(2,1,2) = 0.45	 
obj:  1.0000000000000002
erro
[(0, 1), (1, 2), (2, 1), (1, 1), (2, 2), (0, 2)]
cliques:  0 mip: 82
C:  25.000000000000004
x(0,0) = 23.93	 x(0,1) = 4.46	 x(0,2) = 11.46	 
x(1,0) = 12.03	 x(1,1) = 6.74	 x(1,2) = 15.03	 
x(2,0) = 20.89	 x(2,1) = 6.69	 x(2,2) = 14.59	 
y(0,1,0) = 0.00	 y(1,0,0) = 1.00	 
y(0,2,0) = 0.04	 y(2,0,0) = 0.96	 
y(1,2,0) = 0.82	 y(2,1,0) = 0.18	 
y(0,1,1) = 0.81	 y(1,0,1) = 0.19	 
y(0,2,1) = 0.61	 y(2,0,1) = 0.39	 
y(1,2,1) = 0.82	 y(2,1,1) = 0.18	 
y(0,1,2) = 0.50	 y(1,0,2) = 0.50	 
y(0,2,2) = 0.70	 y(2,0,2) = 0.30	 
y(1,2,2) = 0.52	 y(2,1,2) = 0.48	 
obj:  1.0000000000000007
erro
[(1, 2), (0, 1), (2, 1), (2, 0), (1, 1), (2, 2), (1, 0), (0, 2)]
cliques:  0 mip: 82
C:  25.0
x(0,0) = 24.00	 x(0,1) = 6.11	 x(0,2) = 17.00	 
x(1,0) = 9.25	 x(1,1) = 4.51	 x(1,2) = 12.25	 
x(2,0) = 22.00	 x(2,1) = 6.77	 x(2,2) = 15.25	 
y(0,1,0) = 0.00	 y(1,0,0) = 1.00	 
y(0,2,0) = -0.00	 y(2,0,0) = 1.00	 
y(1,2,0) = 0.86	 y(2,1,0) = 0.14	 
y(0,1,1) = 0.65	 y(1,0,1) = 0.35	 
y(0,2,1) = 0.54	 y(2,0,1) = 0.46	 
y(1,2,1) = 0.78	 y(2,1,1) = 0.22	 
y(0,1,2) = 0.11	 y(1,0,2) = 0.89	 
y(0,2,2) = 0.64	 y(2,0,2) = 0.36	 
y(1,2,2) = 0.85	 y(2,1,2) = 0.15	 
obj:  1.03070423741095
erro
[(0, 1), (1, 2), (0, 2), (2, 1), (2, 0), (2, 2), (1, 0), (1, 1)]
cliques:  0 mip: 78
C:  25.000000000000007
x(0,0) = 23.67	 x(0,1) = 6.63	 x(0,2) = 16.67	 
x(1,0) = 8.37	 x(1,1) = 4.37	 x(1,2) = 11.37	 
x(2,0) = 19.38	 x(2,1) = 6.38	 x(2,2) = 13.38	 
y(0,1,0) = 0.00	 y(1,0,0) = 1.00	 
y(0,2,0) = 0.16	 y(2,0,0) = 0.84	 
y(1,2,0) = 0.75	 y(2,1,0) = 0.25	 
y(0,1,1) = 0.56	 y(1,0,1) = 0.44	 
y(0,2,1) = 0.48	 y(2,0,1) = 0.52	 
y(1,2,1) = 0.71	 y(2,1,1) = 0.29	 
y(0,1,2) = 0.12	 y(1,0,2) = 0.88	 
y(0,2,2) = 0.59	 y(2,0,2) = 0.41	 
y(1,2,2) = 0.80	 y(2,1,2) = 0.20	 
obj:  1.0129378042676287
erro
[(0, 1), (1, 2), (2, 1), (2, 0), (1, 1), (2, 2), (1, 0), (0, 2)]
cliques:  0 mip: 85
C:  25.0
x(0,0) = 24.00	 x(0,1) = 5.89	 x(0,2) = 12.90	 
x(1,0) = 9.70	 x(1,1) = 5.01	 x(1,2) = 18.00	 
x(2,0) = 19.95	 x(2,1) = 6.51	 x(2,2) = 13.51	 
y(0,1,0) = 0.00	 y(1,0,0) = 1.00	 
y(0,2,0) = 0.00	 y(2,0,0) = 1.00	 
y(1,2,0) = 0.73	 y(2,1,0) = 0.27	 
y(0,1,1) = 0.68	 y(1,0,1) = 0.32	 
y(0,2,1) = 0.56	 y(2,0,1) = 0.44	 
y(1,2,1) = 0.67	 y(2,1,1) = 0.33	 
y(0,1,2) = 0.47	 y(1,0,2) = 0.53	 
y(0,2,2) = 0.58	 y(2,0,2) = 0.42	 
y(1,2,2) = 0.33	 y(2,1,2) = 0.67	 
obj:  1.0179799881454623
erro
[(1, 2), (0, 1), (2, 1), (1, 1), (2, 2), (0, 2)]
cliques:  0 mip: 85
C:  25.0
x(0,0) = 24.00	 x(0,1) = 6.63	 x(0,2) = 13.63	 
x(1,0) = 9.33	 x(1,1) = 5.33	 x(1,2) = 18.00	 
x(2,0) = 19.73	 x(2,1) = 5.70	 x(2,2) = 12.70	 
y(0,1,0) = 0.00	 y(1,0,0) = 1.00	 
y(0,2,0) = 0.00	 y(2,0,0) = 1.00	 
y(1,2,0) = 0.62	 y(2,1,0) = 0.38	 
y(0,1,1) = 0.39	 y(1,0,1) = 0.61	 
y(0,2,1) = 0.43	 y(2,0,1) = 0.57	 
y(1,2,1) = 0.68	 y(2,1,1) = 0.32	 
y(0,1,2) = 0.62	 y(1,0,2) = 0.38	 
y(0,2,2) = 0.54	 y(2,0,2) = 0.46	 
y(1,2,2) = 0.14	 y(2,1,2) = 0.86	 
obj:  1.025360267792908
erro
[(0, 1), (1, 2), (0, 2), (2, 1), (2, 0), (2, 2), (1, 0), (1, 1)]
cliques:  0 mip: 88
C:  25.0
x(0,0) = 24.00	 x(0,1) = 8.52	 x(0,2) = 15.52	 
x(1,0) = 8.89	 x(1,1) = 4.42	 x(1,2) = 18.00	 
x(2,0) = 19.43	 x(2,1) = 4.00	 x(2,2) = 13.24	 
y(0,1,0) = 0.00	 y(1,0,0) = 1.00	 
y(0,2,0) = 0.00	 y(2,0,0) = 1.00	 
y(1,2,0) = 0.69	 y(2,1,0) = 0.31	 
y(0,1,1) = 0.21	 y(1,0,1) = 0.79	 
y(0,2,1) = 0.10	 y(2,0,1) = 0.90	 
y(1,2,1) = 0.80	 y(2,1,1) = 0.20	 
y(0,1,2) = 0.36	 y(1,0,2) = 0.64	 
y(0,2,2) = 0.33	 y(2,0,2) = 0.67	 
y(1,2,2) = 0.33	 y(2,1,2) = 0.67	 
obj:  1.0036847074754485
erro
[(1, 2), (0, 1), (2, 1), (2, 0), (1, 1), (2, 2), (1, 0), (0, 2)]
cliques:  0 mip: 0
iterações: 15 cortes cliques encontrados: 3 mip: 1029 objective:  25.0
Coin0506I Presolve 65 (-61) rows, 39 (-25) columns and 202 (-86) elements
Clp1000I sum of infeasibilities 3.24924e-06 - average 4.99884e-08, 0 fixed columns
Coin0506I Presolve 65 (0) rows, 39 (0) columns and 202 (0) elements
Clp0029I End of values pass after 39 iterations
Clp0000I Optimal - objective value 15
Clp0000I Optimal - objective value 15
Coin0511I After Postsolve, objective 15, infeasibilities - dual 0 (0), primal 0 (0)
Clp0000I Optimal - objective value 15
Clp0000I Optimal - objective value 15
Clp0000I Optimal - objective value 15
Coin0511I After Postsolve, objective 15, infeasibilities - dual 0 (0), primal 0 (0)
Clp0032I Optimal objective 15 - 0 iterations time 0.002, Presolve 0.00, Idiot 0.00
Coin3009W Conflict graph built in 0.000 seconds, density: 0.147%
